Ni3 Cl6
1.0
3.464875 0.000000 0.000000
-1.732438 3.000670 0.000000
0.000000 0.000000 19.276800
Ni Cl
3 6
direct
0.000000 0.000000 0.000000 Ni
0.666667 0.333333 0.333333 Ni
0.333333 0.666667 0.666667 Ni
0.000000 0.000000 0.267154 Cl
0.666667 0.333333 0.066179 Cl
0.666667 0.333333 0.600487 Cl
0.333333 0.666667 0.399513 Cl
0.333333 0.666667 0.933821 Cl
0.000000 0.000000 0.732846 Cl
