POSCAR -- Reduced via b,-a,-1/3a+1/3b+1/3c
1.0
     3.4650000000       0.0000000000       0.0000000000
     1.7325000000       3.0007780241       0.0000000000
     1.7327738159       1.0004174290       6.4256952831
Ni Cl
2 2
Direct
     0.732850000     0.732850000     0.801449000  !Cl
     0.267150000     0.267150000     0.198550000  !Cl
     0.000000000     0.000000000     0.999999000  !Ni
     0.000000000     0.000000000     0.000001000  !Ni


! Created by the Bilbao Crystallographic Server
! http://www.cryst.ehu.es
! Date: 26/08/2018 16:51:08
