POSCAR
1.0
     3.4649000000       0.0000000000       0.0000000000
    -1.7324500000       3.0006914216       0.0000000000
     0.0000000000       0.0000000000      19.2768000000
Ni Cl
6 3
Direct
     0.666667000     0.333333000     0.600483000  !Cl
     0.333333000     0.666667000     0.933817000  !Cl
     0.000000000     0.000000000     0.267150000  !Cl
     0.000000000     0.000000000     0.732850000  !Cl
     0.333333000     0.666667000     0.399517000  !Cl
     0.666667000     0.333333000     0.066183000  !Cl
     0.666667000     0.333333000     0.333333000  !Ni
     0.333333000     0.666667000     0.666667000  !Ni
     0.000000000     0.000000000     0.000000000  !Ni


! Created by the Bilbao Crystallographic Server
! http://www.cryst.ehu.es
! Date: 26/08/2018 16:51:08
