Ti4 O8
1.0
3.907301 0.000000 0.000000
0.000000 6.099240 -0.917675
0.000000 1.150609 11.350237
Ti O
4 8
direct
0.250000 0.960685 0.254990 Ti
0.750000 0.547137 0.900412 Ti
0.250000 0.452863 0.099588 Ti
0.750000 0.039315 0.745010 Ti
0.250000 0.535664 0.935630 O
0.250000 0.048114 0.392487 O
0.750000 0.464336 0.064370 O
0.750000 0.951886 0.607513 O
0.250000 0.661998 0.216361 O
0.750000 0.828935 0.854631 O
0.750000 0.338002 0.783639 O
0.250000 0.171065 0.145369 O
