Ti16 O32
1.0
5.930889 0.075366 -0.053852
3.030713 5.249273 -0.000069
11.773023 7.200748 19.321845
Ti O
16 32
direct
0.480230 0.491493 0.125908 Ti
0.482908 0.483819 0.262363 Ti
0.480217 0.024659 0.125910 Ti
0.127401 0.118200 0.534052 Ti
0.498173 0.495752 0.377939 Ti
0.859633 0.877459 0.221364 Ti
0.134234 0.128160 0.777349 Ti
0.498165 0.994330 0.377941 Ti
0.506233 0.502436 0.623345 Ti
0.875705 0.880351 0.465898 Ti
0.506229 0.997955 0.623343 Ti
0.490580 0.029137 0.869628 Ti
0.490590 0.501777 0.869629 Ti
0.876938 0.877982 0.716778 Ti
0.480400 0.496001 0.006900 Ti
0.854031 0.881774 0.970608 Ti
0.293437 0.253985 0.062147 O
0.294585 0.248493 0.177112 O
0.293443 0.703996 0.062151 O
0.711838 0.259388 0.067339 O
0.273513 0.742852 0.185196 O
0.297525 0.246678 0.315078 O
0.728073 0.247174 0.191002 O
0.279984 0.235753 0.437137 O
0.297515 0.695479 0.315081 O
0.723867 0.760859 0.063598 O
0.708801 0.254548 0.320529 O
0.728023 0.760789 0.191002 O
0.264762 0.214159 0.566841 O
0.270818 0.757660 0.428474 O
0.748684 0.240385 0.432520 O
0.278812 0.249849 0.680370 O
0.264748 0.753730 0.566836 O
0.721585 0.754496 0.317355 O
0.727541 0.246937 0.569639 O
0.748706 0.780856 0.432512 O
0.278902 0.751047 0.679745 O
0.253780 0.219900 0.815260 O
0.734156 0.242248 0.684163 O
0.293959 0.270326 0.916351 O
0.253795 0.765234 0.815257 O
0.724248 0.753528 0.567161 O
0.740108 0.244330 0.817801 O
0.734149 0.786957 0.684165 O
0.274201 0.744391 0.934259 O
0.711722 0.257783 0.940084 O
0.718938 0.761694 0.814412 O
0.711747 0.770149 0.940086 O
