La2CuO4                                 
   1.00160000000000     
     5.5004204841025075   -0.0000018194311457    0.0000624426507117
    -0.0000015558647498    5.3287413039374121    0.0002380941549413
     0.0000733389649361    2.6649957099876049    6.4968045689236131
Cu   La   O 
2    4    8
Direct
  0.0000000000000000  0.0000000000000000  0.0000000000000000 Cu
  0.4999999699999975  0.5000000000000000  0.0000000000000000 Cu
  0.0137411457689680  0.3610095911415172  0.2778447471372942 La
  0.9862587562310310  0.6389903788584803  0.7221552228627033 La
  0.4862569577953124  0.8610215189627084  0.2778237135960424 La
  0.5137431912046821  0.1389784810372916  0.7221763164039601 La
  0.0624536178662893  0.8139848885716390  0.3721400906739802 O
  0.9375464041337125  0.1860153054283487  0.6278598803260138 O
  0.4375368523691421  0.3139902893316275  0.3721281067039968 O
  0.5624630286308587  0.6860098896683695  0.6278719232960057 O
  0.2499779802336022  0.7626072746826935  0.9747146585603090 O
  0.7499815863087775  0.7373729878357764  0.0252856768181431 O
  0.7500219907663990  0.2373927993173055  0.0252852894396867 O
  0.2500184286912273  0.2626270721642214  0.9747142361818604 O
