Cu6 S6
1.0
3.765000 0.000000 0.000000
-1.882500 3.260586 0.000000
0.000000 0.000000 16.290000
S Cu
6 6
direct
0.000000 0.000000 0.437000 S
0.000000 0.000000 0.937000 S
0.000000 0.000000 0.563000 S
0.000000 0.000000 0.063000 S
0.666667 0.333333 0.750000 S
0.333333 0.666667 0.250000 S
0.333333 0.666667 0.393000 Cu
0.666667 0.333333 0.893000 Cu
0.666667 0.333333 0.607000 Cu
0.333333 0.666667 0.107000 Cu
0.666667 0.333333 0.250000 Cu
0.333333 0.666667 0.750000 Cu
