sm_isp_SD1300494-standardized_unitcell
1.0
        3.4779999256         0.0000000000         0.0000000000
       -1.7389999628         3.0120362899         0.0000000000
        0.0000000000         0.0000000000        17.4099998474
   Cl   Ni
    6    3
Direct
     0.000000000         0.000000000         0.250000000 Cl
     0.000000000         0.000000000         0.750000000 Cl
     0.666666703         0.333333337         0.583333388 Cl
     0.666666703         0.333333337         0.083333340 Cl
     0.333333339         0.666666674         0.916666667 Cl
     0.333333339         0.666666674         0.416666694 Cl
     0.000000000         0.000000000         0.000000000 Ni
     0.666666703         0.333333337         0.333333333 Ni
     0.333333339         0.666666674         0.666666667 Ni