Cu31 S16
1.0
       13.5649995804         0.0000000000         0.0000000000
        0.0000000000        15.7449998856         0.0000000000
       -0.0610260140         0.0000000000        26.8969301287
   Cu C  Cu S
  189 1 58 128
Direct
0.002000000 0.000800000 0.058899999 Cu   
0.998000026 0.999199986 0.941100001 Cu   
0.497999996 0.500800014 0.441100001 Cu   
0.501999974 0.499199986 0.558899999 Cu   
0.006000000 0.744799972 0.063000001 Cu   
0.994000018 0.255200028 0.936999977 Cu   
0.493999988 0.244800001 0.437000006 Cu   
0.506000042 0.755200028 0.562999964 Cu   
0.246600002 0.371399999 0.065899998 Cu
0.753399968 0.628600001 0.934100032 Cu
0.746599972 0.128600001 0.565900028 Cu
0.253400028 0.871399999 0.434099972 Cu
0.494399995 0.510100007 0.065899998 Cu
0.505599976 0.489899993 0.934100032 Cu
0.005600000 0.010100000 0.434100002 Cu
0.994400024 0.989899993 0.565899968 Cu
0.499900013 0.257499993 0.055799998 Cu
0.500100017 0.742500007 0.944199979 Cu
0.000100000 0.757499993 0.444200009 Cu
0.999899983 0.242500007 0.555799961 Cu
0.504800022 0.008500000 0.935699999 Cu
0.495199978 0.991500020 0.064300001 Cu
0.004800000 0.491499990 0.435699999 Cu
0.995199978 0.508499980 0.564300001 Cu
0.759299994 0.387400001 0.067400001 Cu
0.240700006 0.612599969 0.932600021 Cu
0.259299994 0.112599999 0.567399979 Cu
0.740700006 0.887400031 0.432600021 Cu
0.743300021 0.140200004 0.061600000 Cu
0.256699979 0.859799981 0.938400030 Cu
0.243300006 0.359800011 0.561600029 Cu
0.756699979 0.640200019 0.438399971 Cu
0.245800003 0.115500003 0.931699991 Cu
0.754199982 0.884500027 0.068300009 Cu
0.254200011 0.615499973 0.568300009 Cu
0.745800018 0.384500027 0.431699991 Cu
0.002100000 0.499500006 0.811600029 Cu
0.997900009 0.500499964 0.188399971 Cu
0.502099991 0.000500000 0.311600000 Cu
0.497900009 0.999499977 0.688400030 Cu
0.993600011 0.246500000 0.193100005 Cu
0.006399989 0.753499985 0.806900024 Cu
0.493600011 0.253500015 0.693099976 Cu
0.506399989 0.746500015 0.306900024 Cu
0.010800000 0.245900005 0.819400012 Cu
0.989199996 0.754099965 0.180599988 Cu
0.510800004 0.254099995 0.319400012 Cu
0.489199996 0.745900035 0.680599988 Cu
0.238900006 0.374500006 0.188700005 Cu
0.761099994 0.625499964 0.811299980 Cu
0.261099994 0.874499977 0.311300009 Cu
0.738900006 0.125500023 0.688699961 Cu
0.249500006 0.878600001 0.194600001 Cu
0.750499964 0.121399999 0.805400014 Cu
0.250499994 0.378600001 0.305400014 Cu
0.749500036 0.621399999 0.694599986 Cu
0.242300004 0.629400015 0.190099999 Cu
0.757699966 0.370599985 0.809899986 Cu
0.257699996 0.129400000 0.309899986 Cu
0.742300034 0.870599985 0.690100014 Cu
0.483399987 0.501299977 0.181099996 Cu
0.516600013 0.498700023 0.818899989 Cu
0.016600000 0.001300000 0.318899989 Cu
0.983399987 0.998700023 0.681100011 Cu
0.495200008 0.749700010 0.194299996 Cu
0.504799962 0.250299990 0.805700004 Cu
0.004800000 0.249699995 0.305700004 Cu
0.995199978 0.750299990 0.694299996 Cu
0.754899979 0.366400003 0.181099996 Cu
0.245100021 0.633599997 0.818899989 Cu
0.254900008 0.133599997 0.681100011 Cu
0.745100021 0.866400003 0.318899989 Cu
0.741500020 0.114799999 0.188800007 Cu
0.258499980 0.885200024 0.811200023 Cu
0.241500005 0.385199994 0.688799977 Cu
0.758499980 0.614799976 0.311200023 Cu
0.261099994 0.377499998 0.807200015 Cu
0.738900006 0.622500002 0.192799985 Cu
0.761099994 0.122500002 0.307200015 Cu
0.238900006 0.877499998 0.692799985 Cu
0.066299997 0.346899986 0.016300000 Cu
0.933700025 0.653100014 0.983699977 Cu
0.566299975 0.153099999 0.516300023 Cu
0.433700025 0.846899986 0.483699977 Cu
0.137099996 0.109499998 0.017100001 Cu
0.862900019 0.890500009 0.982900023 Cu
0.362899989 0.609499991 0.482899994 Cu
0.637099981 0.390500009 0.517099977 Cu
0.123700000 0.865599990 0.018300001 Cu
0.876299977 0.134400010 0.981700003 Cu
0.376300007 0.365599990 0.481700003 Cu
0.623700023 0.634400010 0.518299997 Cu
0.124200001 0.623899996 0.014900000 Cu
0.875800014 0.376100004 0.985099971 Cu
0.375800014 0.123899996 0.485100001 Cu
0.624199986 0.876100004 0.514899969 Cu
0.306400001 0.210400000 0.014400000 Cu
0.693599999 0.789600015 0.985599995 Cu
0.193599999 0.710399985 0.485599995 Cu
0.806400001 0.289600015 0.514400005 Cu
0.319099993 0.035500001 0.015900001 Cu
0.680899978 0.964500010 0.984099984 Cu
0.180899993 0.535499990 0.484100014 Cu
0.819100022 0.464500010 0.515900016 Cu
0.333499998 0.760900021 0.017400000 Cu
0.666499972 0.239099979 0.982599974 Cu
0.166500002 0.260899991 0.482600003 Cu
0.833500028 0.739099979 0.517400026 Cu
0.593100011 0.395500004 0.014200000 Cu
0.406899989 0.604499996 0.985800028 Cu
0.093099996 0.104500003 0.514199972 Cu
0.906899989 0.895500004 0.485800028 Cu
0.561999977 0.111699998 0.010500000 Cu
0.438000023 0.888300002 0.989499986 Cu
0.061999999 0.388300002 0.510500014 Cu
0.938000023 0.611699998 0.489499986 Cu
0.633199990 0.640100002 0.017100001 Cu
0.366800010 0.359899998 0.982900023 Cu
0.866800010 0.140100002 0.482899994 Cu
0.133199990 0.859899998 0.517099977 Cu
0.813399971 0.533200026 0.014800000 Cu
0.186600029 0.466799974 0.985199988 Cu
0.686600029 0.033199999 0.485199988 Cu
0.313399971 0.966799974 0.514800012 Cu
0.071699999 0.417600006 0.108199999 Cu
0.928300023 0.582399964 0.891799986 Cu
0.571699977 0.082400002 0.608200014 Cu
0.428300023 0.917599976 0.391799986 Cu
0.063000001 0.157399997 0.107299998 Cu
0.936999977 0.842599988 0.892700016 Cu
0.437000006 0.657400012 0.392699987 Cu
0.562999964 0.342599988 0.607300043 Cu
0.050700001 0.588999987 0.103500001 Cu
0.949299991 0.411000013 0.896499991 Cu
0.449299991 0.089000002 0.396499991 Cu
0.550700009 0.911000013 0.603500009 Cu
0.312299997 0.965399981 0.107699998 Cu
0.687700033 0.034600019 0.892300010 Cu
0.187700003 0.465400010 0.392300010 Cu
0.812299967 0.534600019 0.607699990 Cu
0.326799989 0.733299971 0.112499997 Cu
0.673200011 0.266700029 0.887499988 Cu
0.173199996 0.233300000 0.387499988 Cu
0.826799989 0.766700029 0.612500012 Cu
0.315899998 0.542699993 0.108700000 Cu
0.684100032 0.457300007 0.891300023 Cu
0.184100002 0.042700000 0.391299993 Cu
0.815899968 0.957300007 0.608700037 Cu
0.438899994 0.158899993 0.892300010 Cu
0.561100006 0.841099977 0.107699990 Cu
0.061099999 0.658900023 0.607699990 Cu
0.938899994 0.341099977 0.392300010 Cu
0.558000028 0.666999996 0.107600003 Cu
0.441999972 0.333000004 0.892400026 Cu
0.057999998 0.833000004 0.607599974 Cu
0.942000031 0.166999996 0.392400026 Cu
0.887399971 0.492599994 0.104599997 Cu
0.112600029 0.507400036 0.895399988 Cu
0.387400001 0.007400000 0.604600012 Cu
0.612599969 0.992600024 0.395399988 Cu
0.877200007 0.249899998 0.107400000 Cu
0.122799993 0.750100017 0.892600000 Cu
0.377200007 0.250099987 0.607400000 Cu
0.622799993 0.749899983 0.392600000 Cu
0.833999991 0.028300000 0.112899996 Cu
0.166000009 0.971700013 0.887099981 Cu
0.333999991 0.471700013 0.612900019 Cu
0.666000009 0.528299987 0.387099981 Cu
0.183799997 0.274800003 0.890500009 Cu
0.816200018 0.725199997 0.109499991 Cu
0.683799982 0.225199997 0.390500009 Cu
0.316200018 0.774800003 0.609499991 Cu
0.127800003 0.000600000 0.138999999 Cu
0.872200012 0.999400020 0.861000001 Cu
0.372200012 0.500599980 0.361000001 Cu
0.627799988 0.499400020 0.638999999 Cu
0.148300007 0.767799973 0.137400001 Cu
0.851700008 0.232200027 0.862599969 Cu
0.351700008 0.267800003 0.362599999 Cu
0.648299992 0.732200027 0.637400031 Cu
0.421999991 0.330000013 0.138999999 Cu
0.578000009 0.669999957 0.861000001 Cu
0.078000002 0.829999983 0.361000001 Cu
0.921999991 0.170000017 0.638999999 Cu
0.421099991 0.133499995 0.139799997 Cu
0.578899980 0.866500020 0.860199988 Cu
0.078900002 0.633499980 0.360199988 Cu
0.921100020 0.366500020 0.639800012 Cu
0.658100009 0.494399995 0.140699998 Cu
0.341899991 0.505599976 0.859300017 C
0.158099994 0.005600000 0.640699983 Cu
0.841899991 0.994400024 0.359300017 Cu
0.610099971 0.244900003 0.145500004 Cu
0.389900029 0.755100012 0.854499996 Cu
0.110100001 0.255100012 0.645500004 Cu
0.889899969 0.744899988 0.354499996 Cu
0.383700013 0.003100000 0.855499983 Cu
0.616299987 0.996900022 0.144500017 Cu
0.116300002 0.503099978 0.644500017 Cu
0.883700013 0.496900022 0.355499983 Cu
0.069700003 0.097599998 0.857200027 Cu
0.930299997 0.902400017 0.142799973 Cu
0.569700003 0.402399987 0.357199997 Cu
0.430299997 0.597599983 0.642799973 Cu
0.186100006 0.211600006 0.224099994 Cu
0.813899994 0.788399994 0.775900006 Cu
0.313899994 0.711600006 0.275900006 Cu
0.686100006 0.288399994 0.724099994 Cu
0.198699996 0.037799999 0.229800001 Cu
0.801299989 0.962199986 0.770200014 Cu
0.301299989 0.537800014 0.270200014 Cu
0.698700011 0.462199986 0.729799986 Cu
0.423700005 0.361900002 0.234400004 Cu
0.576300025 0.638100028 0.765599966 Cu
0.076300003 0.861899972 0.265599996 Cu
0.923699975 0.138100028 0.734400034 Cu
0.407799989 0.108999997 0.234200001 Cu
0.592200041 0.891000032 0.765799999 Cu
0.092200004 0.609000027 0.265799999 Cu
0.907800019 0.390999973 0.734200001 Cu
0.563399971 0.088399999 0.768899977 Cu
0.436600029 0.911599994 0.231100023 Cu
0.063400000 0.411599994 0.268900007 Cu
0.936599970 0.588400006 0.731099963 Cu
0.307500005 0.040899999 0.765999973 Cu
0.692499995 0.959100008 0.234000027 Cu
0.192499995 0.540899992 0.734000027 Cu
0.807500005 0.459100008 0.265999973 Cu
0.318599999 0.214300007 0.767799973 Cu
0.681400001 0.785699964 0.232200027 Cu
0.818599999 0.285699993 0.267800003 Cu
0.181400001 0.714300036 0.732200027 Cu
0.936600029 0.091399997 0.230599999 Cu
0.063399971 0.908599973 0.769400001 Cu
0.563399971 0.591400027 0.269400001 Cu
0.436600029 0.408599973 0.730599999 Cu
0.124100000 0.134499997 0.763300002 Cu
0.875900030 0.865499973 0.236699998 Cu
0.624100029 0.365500003 0.263300002 Cu
0.375899971 0.634500027 0.736699998 Cu
0.087800004 0.353399992 0.764400005 Cu
0.912199974 0.646600008 0.235599995 Cu
0.587800026 0.146599993 0.264400005 Cu
0.412199974 0.853399992 0.735599995 Cu
0.244599998 0.238499999 0.127700001 Cu
0.755400002 0.761500001 0.872300029 Cu
0.255400002 0.738499999 0.372299999 Cu
0.744599998 0.261500001 0.627699971 Cu
0.174300000 0.508899987 0.064599998 S
0.825699985 0.491100013 0.935400009 S
0.325700015 0.008900000 0.435400009 S
0.674299955 0.991100013 0.564599991 S
0.163399994 0.243300006 0.057000000 S
0.836600006 0.756699979 0.943000019 S
0.663399994 0.256700009 0.556999981 S
0.336600006 0.743299961 0.443000019 S
0.174600005 0.987299979 0.058699999 S
0.825399995 0.012700021 0.941299975 S
0.325399995 0.487300009 0.441300005 S
0.674600005 0.512699962 0.558699965 S
0.174700007 0.744400024 0.056299999 S
0.825299978 0.255599976 0.943700016 S
0.325300008 0.244399995 0.443699986 S
0.674700022 0.755599976 0.556300044 S
0.413899988 0.383300006 0.062100001 S
0.586099982 0.616699994 0.937900007 S
0.086099997 0.883300006 0.437900007 S
0.913900018 0.116699994 0.562099993 S
0.419200003 0.127100006 0.056899998 S
0.580799997 0.872900009 0.943099976 S
0.080799997 0.627099991 0.443100005 S
0.919200003 0.372900009 0.556900024 S
0.411399990 0.867399991 0.069799997 S
0.588600039 0.132600009 0.930199981 S
0.088600002 0.367399991 0.430200011 S
0.911400020 0.632600009 0.569800019 S
0.414600015 0.636300027 0.066900000 S
0.585399985 0.363699973 0.933099985 S
0.085400000 0.136299998 0.433099985 S
0.914600015 0.863700032 0.566900015 S
0.662599981 0.506799996 0.056899998 S
0.337400019 0.493200004 0.943099976 S
0.837400019 0.006800000 0.443100005 S
0.162599981 0.993200004 0.556900024 S
0.666599989 0.264400005 0.066100001 S
0.333400011 0.735599995 0.933899999 S
0.166600004 0.235599995 0.566100001 S
0.833400011 0.764400005 0.433899999 S
0.666599989 0.009600000 0.064499997 S
0.333400011 0.990400016 0.935500026 S
0.166600004 0.490399987 0.564499974 S
0.833400011 0.509600043 0.435500026 S
0.671800017 0.752300024 0.068300001 S
0.328199983 0.247699976 0.931699991 S
0.171800002 0.747699976 0.568300009 S
0.828199983 0.252300024 0.431699991 S
0.927600026 0.368600011 0.064999998 S
0.072399974 0.631399989 0.935000002 S
0.427599996 0.131400004 0.564999998 S
0.572399974 0.868600011 0.435000002 S
0.914900005 0.125400007 0.063400000 S
0.085099995 0.874599993 0.936599970 S
0.414900005 0.374599993 0.563399971 S
0.585099995 0.625400007 0.436600029 S
0.076399997 0.129700005 0.938300014 S
0.923600018 0.870299995 0.061699986 S
0.576399982 0.370299995 0.438300014 S
0.423600018 0.629700005 0.561699986 S
0.096900001 0.375299990 0.934000015 S
0.903100014 0.624700010 0.065999985 S
0.596899986 0.124700002 0.433999985 S
0.403100014 0.875299990 0.565999985 S
0.074100003 0.370900005 0.188600004 S
0.925899982 0.629099965 0.811399996 S
0.574100018 0.129099995 0.688600004 S
0.425899982 0.870900035 0.311399996 S
0.079000004 0.116599999 0.187199995 S
0.921000004 0.883400023 0.812799990 S
0.421000004 0.616599977 0.312799990 S
0.578999996 0.383400023 0.687200010 S
0.080100000 0.876699984 0.183400005 S
0.919900000 0.123300016 0.816599965 S
0.419900000 0.376700014 0.316599995 S
0.580100000 0.623299956 0.683400035 S
0.074800000 0.629999995 0.183799997 S
0.925199986 0.370000005 0.816200018 S
0.425199986 0.129999995 0.316199988 S
0.574800014 0.870000005 0.683799982 S
0.320699990 0.495599985 0.188899994 S
0.679300010 0.504400015 0.811100006 S
0.179299995 0.995599985 0.311100006 S
0.820699990 0.004400015 0.688899994 S
0.341399997 0.243000001 0.192800000 S
0.658599973 0.756999969 0.807200015 S
0.158600003 0.742999971 0.307200015 S
0.841400027 0.257000029 0.692799985 S
0.337399989 0.004900000 0.187099993 S
0.662600040 0.995100021 0.812900007 S
0.162599996 0.504899979 0.312900007 S
0.837400019 0.495100021 0.687099993 S
0.328999996 0.752699971 0.194999993 S
0.671000004 0.247300029 0.805000007 S
0.171000004 0.252700001 0.305000007 S
0.828999996 0.747300029 0.694999993 S
0.576799989 0.376100004 0.182699993 S
0.423200011 0.623899996 0.817300022 S
0.076800004 0.123899996 0.682699978 S
0.923200011 0.876100004 0.317300022 S
0.571799994 0.122000001 0.182200000 S
0.428200006 0.878000021 0.817799985 S
0.071800001 0.377999991 0.682200015 S
0.928200006 0.621999979 0.317799985 S
0.419999987 0.121600002 0.810000002 S
0.580000043 0.878399968 0.189999998 S
0.079999998 0.621599972 0.689999998 S
0.920000017 0.378400028 0.310000002 S
0.575500011 0.622200012 0.187500000 S
0.424499989 0.377799988 0.812500000 S
0.924499989 0.122199997 0.312500000 S
0.075500011 0.877799988 0.687500000 S
0.174400002 0.498899996 0.814899981 S
0.825600028 0.501100004 0.185100019 S
0.674399972 0.001100000 0.314900011 S
0.325600028 0.998899996 0.685099959 S
0.827099979 0.239700004 0.188199997 S
0.172900021 0.760299981 0.811800003 S
0.327100009 0.260300010 0.688199997 S
0.672899961 0.739699960 0.311800003 S
0.163000003 0.008000000 0.806599975 S
0.837000012 0.991999984 0.193400025 S
0.662999988 0.492000014 0.306600004 S
0.337000012 0.508000016 0.693400025 S
0.175400004 0.252799988 0.808499992 S
0.824599981 0.747200012 0.191500008 S
0.675400019 0.247199997 0.308499992 S
0.324599981 0.752799988 0.691500008 S
