Nb2 O5
1.0
        3.8320000172         0.0000000000         0.0000000000
        1.9158992887        14.4532693779         0.0000000000
        1.9158992887         0.0001414786        14.4532693772
 Nb  O
 16 40
Direct
     0.500000000         0.129400000         0.870599985
     0.500000000         0.870599985         0.129400015
     0.370599985         0.129400000         0.129400000
     0.629400015         0.870599985         0.870599985
     0.634400010         0.139400005         0.591799974
     0.365599990         0.860599995         0.408200026
     0.634400010         0.591799974         0.139400005
     0.365599990         0.408200026         0.860599995
     0.226199999         0.139400005         0.408199996
     0.773800015         0.860599995         0.591799974
     0.226199999         0.408199996         0.139400005
     0.773800015         0.591799974         0.860599995
     0.500000000         0.404700011         0.595300019
     0.500000000         0.595299959         0.404699981
     0.095299996         0.404700011         0.404700011
     0.904699981         0.595299959         0.595299959
     0.432200015         0.000000000         0.135600001
     0.567799985         0.000000000         0.864400029
     0.432200015         0.135600001         0.000000000
     0.567799985         0.864400029         0.000000000
     0.000000000         0.152099997         0.847899973
     0.000000000         0.847900033         0.152100027
     0.847899973         0.152099997         0.152099997
     0.152100027         0.847900033         0.847900033
     0.000000000         0.426899999         0.573099971
     0.000000000         0.573099971         0.426900029
     0.573099971         0.426899999         0.426899999
     0.426900029         0.573099971         0.573099971
     0.159799993         0.130700007         0.549700022
     0.840200007         0.869300008         0.450299978
     0.159799993         0.549700022         0.130700007
     0.840200007         0.450299978         0.869300008
     0.709500015         0.130700007         0.450300008
     0.290499985         0.869300008         0.549700022
     0.709500015         0.450300008         0.130700007
     0.290499985         0.549700022         0.869300008
     0.288399994         0.000000000         0.423200011
     0.711600006         0.000000000         0.576799989
     0.288399994         0.423200011         0.000000000
     0.711600006         0.576799989         0.000000000
     0.572700024         0.136800006         0.717800021
     0.427299976         0.863200009         0.282199979
     0.572700024         0.717800021         0.136800006
     0.427299976         0.282199979         0.863200009
     0.290499985         0.136800006         0.282200009
     0.709500015         0.863200009         0.717800021
     0.290499985         0.282200009         0.136800006
     0.709500015         0.717800021         0.863200009
     0.563000023         0.292499989         0.581499994
     0.436999977         0.707499981         0.418500006
     0.563000023         0.581499994         0.292499989
     0.436999977         0.418500006         0.707499981
     0.144500002         0.292499989         0.418500006
     0.855499983         0.707499981         0.581499994
     0.144500002         0.418500006         0.292499989
     0.855499983         0.581499994         0.707499981
