Ti4 O8
1.0
5.894008 0.073639 0.052071
3.010779 5.214821 0.000000
3.010779 1.738274 4.916580
Ti O
4 8
direct
0.272958 0.242348 0.242348 Ti
0.638691 0.099237 0.631036 Ti
0.638691 0.631036 0.099236 Ti
0.638691 0.631036 0.631036 Ti
0.399017 0.365406 0.365406 O
0.399017 0.365406 0.870169 O
0.399017 0.870169 0.365406 O
0.853217 0.382261 0.382261 O
0.404261 0.865246 0.865246 O
0.829597 0.423051 0.873676 O
0.829597 0.873676 0.423051 O
0.829597 0.873676 0.873676 O
