Ti3 O6
1.0
5.616277 0.000000 0.000000
-2.808139 4.863838 0.000000
0.000000 0.000000 6.126830
Ti O
3 6
direct
0.533273 0.533273 0.000000 Ti
0.000000 0.466727 0.666667 Ti
0.466727 0.000000 0.333333 Ti
0.419774 0.270987 0.212591 O
0.148787 0.729013 0.454076 O
0.851213 0.580226 0.879258 O
0.270987 0.419774 0.787409 O
0.729013 0.148787 0.545924 O
0.580226 0.851213 0.120742 O
