sys                                     
   1.0000000000000000     
     5.8776021197986967    0.0681610809885846    0.0481975212895328
     2.9978313087089283    5.1923952948153449    0.0000000038438315
     2.9978313136105785    1.7307984323991439    4.8954368626455871
   Ti   O 
     4     8
Direct
  0.2718305898836419  0.2427234700388183  0.2427234700387686    Ti
  0.6392647931261806  0.0986882994418039  0.6310234537128068    Ti
  0.6392647931327033  0.6310234537061561  0.0986872994481303    Ti
  0.6392647931312396  0.6310234537140715  0.6310234537144979    Ti
  0.3986441481758973  0.3653665753666004  0.3653665753654494    O
  0.3986441481753289  0.3653665753734501  0.8706217010845165    O
  0.3986441481778513  0.8706217010920767  0.3653665753678368    O
  0.8533740861844308  0.3822083046045819  0.3822083046056122    O
  0.4057850504779310  0.8647376498395900  0.8647376498414516    O
  0.8292114831778008  0.4231057554476081  0.8738413806870327    O
  0.8292114831785966  0.8738413806874092  0.4231057554469118    O
  0.8292114831784190  0.8738413806878569  0.8738413806870042    O
