K44 Zn54 Ni2 Cl156
1.0
22.387900 0.000000 0.000000
-0.000000 22.387900 0.000000
0.000000 0.000000 22.387900
Ni Zn K Cl
2 54 44 156
direct
0.422132 0.334824 0.928237 Ni
0.640107 0.406738 0.444047 Ni
0.084450 0.680100 0.585641 Zn
0.457419 0.686800 0.517747 Zn
0.625367 0.531806 0.988984 Zn
0.006729 1.003489 0.214905 Zn
0.656187 0.378151 0.097431 Zn
0.214878 0.982942 0.575814 Zn
0.716935 0.962842 0.756716 Zn
0.541840 0.499199 0.378386 Zn
0.202818 0.094516 0.464147 Zn
0.948756 0.123549 0.120658 Zn
0.620901 0.262017 0.725002 Zn
0.509233 0.769434 0.668275 Zn
0.944736 0.804721 0.196592 Zn
0.680308 0.806508 0.155945 Zn
0.016110 0.375025 0.549907 Zn
0.783042 0.481779 0.113064 Zn
0.200138 0.546993 0.214458 Zn
0.669141 0.165536 0.925110 Zn
0.409626 0.324998 0.561521 Zn
0.709788 0.605506 0.209992 Zn
0.109464 0.409865 0.175151 Zn
0.955010 0.516619 0.178725 Zn
0.604374 0.857428 0.798256 Zn
0.624027 0.172683 0.228752 Zn
0.602587 0.647493 0.627628 Zn
0.848256 0.781494 0.912603 Zn
0.060777 0.055209 0.955930 Zn
0.335032 0.942295 0.917070 Zn
0.495386 0.177150 0.819696 Zn
0.287238 0.223604 0.729469 Zn
0.462779 0.931575 0.351586 Zn
0.935803 0.213330 0.975137 Zn
0.343965 0.503219 0.325232 Zn
0.276965 0.289264 0.871063 Zn
0.825922 0.444258 0.759842 Zn
0.841556 0.620693 0.594574 Zn
0.740608 0.072629 0.374366 Zn
0.184504 0.819015 0.205078 Zn
0.843342 0.254870 0.316746 Zn
0.042016 0.164643 0.442707 Zn
0.242125 0.965969 0.178278 Zn
0.756688 0.259337 0.779942 Zn
-0.002651 0.022602 0.349353 Zn
0.490920 0.806061 0.209545 Zn
0.322078 0.829288 0.763416 Zn
0.517720 0.474632 0.849623 Zn
0.452059 0.217350 0.247512 Zn
0.812969 0.741741 0.497647 Zn
-0.011137 0.276311 0.329253 Zn
0.407839 0.771667 0.363199 Zn
0.493153 0.094516 0.128698 Zn
0.512806 0.076649 0.585194 Zn
0.466799 0.615333 0.989877 Zn
-0.008457 0.693947 0.443153 Zn
0.472160 0.348224 0.347119 K
0.808502 0.425945 0.565988 K
0.901409 0.827501 0.362753 K
0.740608 0.144990 0.103684 K
0.065690 0.643473 0.190338 K
0.505660 0.529126 0.556607 K
0.607947 0.994109 0.298432 K
0.786615 0.800701 0.678102 K
0.820115 0.589426 0.885357 K
0.527993 0.252190 0.063484 K
0.670034 0.716280 0.926897 K
0.104104 0.383065 0.391340 K
0.645467 0.903882 0.503900 K
0.923296 0.331251 0.849623 K
0.106784 0.248617 0.614675 K
0.355579 0.140523 0.050977 K
0.518613 0.484012 0.176491 K
0.408732 0.039129 0.781729 K
0.683434 0.351351 0.268952 K
0.191651 1.004829 0.031324 K
0.217558 0.893608 0.404293 K
0.824135 0.947655 0.217585 K
0.935356 0.335718 0.159518 K
0.216664 0.040916 0.802723 K
0.359152 0.150796 0.577601 K
0.832622 0.081116 0.892950 K
0.347985 0.085583 0.336399 K
0.758475 0.382171 0.961290 K
0.532460 0.121316 0.432880 K
0.039783 0.881995 0.061251 K
0.649041 0.447832 0.726342 K
0.237658 0.390211 0.078671 K
0.044250 0.856088 0.561967 K
0.577127 0.278097 0.552141 K
0.192991 0.670720 0.402060 K
0.360045 0.685907 0.179618 K
0.451166 0.798914 0.934044 K
0.827262 0.715834 0.102791 K
0.594100 1.002149 0.922430 K
0.889349 0.445599 0.319426 K
0.390866 0.917729 0.091624 K
0.400692 0.885122 0.532487 K
0.398459 0.346438 0.738849 K
0.772322 0.718960 0.303792 K
0.563280 0.652407 0.536954 Cl
0.571767 0.422818 0.312726 Cl
0.067923 0.237897 0.382406 Cl
0.705768 0.593446 0.981391 Cl
0.569980 0.380831 0.144331 Cl
-0.006671 0.424605 0.469954 Cl
0.713808 0.078436 0.968437 Cl
0.729441 0.810528 0.064824 Cl
0.797335 0.493392 0.673635 Cl
0.868356 0.458552 0.176938 Cl
0.683881 0.283904 0.059464 Cl
0.745521 0.421478 0.406526 Cl
0.450719 0.286584 0.187658 Cl
0.577574 0.707347 0.703562 Cl
0.435979 0.924875 0.946550 Cl
0.977343 0.159730 0.900097 Cl
0.155024 0.427732 0.264485 Cl
0.261331 0.312938 0.759396 Cl
0.480200 0.495625 0.762522 Cl
0.874609 0.127570 1.013104 Cl
0.289472 0.185637 0.848283 Cl
0.908109 0.295964 0.388213 Cl
0.800908 0.990089 0.350246 Cl
0.247485 0.182957 0.645048 Cl
0.035316 0.073076 0.141204 Cl
0.971536 0.113723 0.374813 Cl
0.007176 0.436218 0.137184 Cl
0.762942 0.670273 0.565094 Cl
0.465013 0.539399 0.916623 Cl
0.678521 0.053869 0.446727 Cl
0.375679 0.206630 0.306919 Cl
0.109910 0.090049 0.404740 Cl
0.597674 0.044936 0.621821 Cl
0.552560 0.898075 0.387766 Cl
0.844235 0.827501 0.558394 Cl
0.393546 0.295071 1.010871 Cl
0.609287 0.316511 0.433773 Cl
0.152344 0.640793 0.531147 Cl
0.879522 0.712260 0.427073 Cl
0.083557 0.733701 0.672742 Cl
0.916596 0.299984 0.999257 Cl
0.255971 0.615333 0.170238 Cl
0.686561 0.095856 0.268059 Cl
0.802249 0.162410 0.351139 Cl
0.462779 0.478205 0.430647 Cl
0.153237 0.504112 0.133164 Cl
0.960816 0.317851 0.604401 Cl
0.105890 0.383958 0.577154 Cl
0.274731 0.858321 0.179618 Cl
0.450719 0.016349 0.510154 Cl
-0.003991 0.670720 0.537847 Cl
0.971090 0.947209 0.394020 Cl
0.162171 0.073522 0.551247 Cl
0.846022 0.337951 0.733489 Cl
0.901409 0.558159 0.541421 Cl
0.028170 0.169556 0.534721 Cl
0.248378 1.007956 0.270292 Cl
0.856296 0.124890 0.168005 Cl
0.727655 0.770774 0.437347 Cl
0.538267 0.197697 0.740189 Cl
0.970643 0.911475 0.176491 Cl
0.748202 0.957482 0.848730 Cl
0.706214 0.231197 0.224732 Cl
0.437319 0.291944 0.477994 Cl
0.420346 0.760054 0.460573 Cl
0.350665 0.757821 0.820589 Cl
0.692814 0.880208 0.229198 Cl
0.811629 0.243257 0.863916 Cl
0.326545 0.747994 0.311386 Cl
0.517720 1.003489 0.132718 Cl
0.167084 0.796681 0.302006 Cl
0.955010 0.779261 0.101451 Cl
0.579360 0.161070 0.143884 Cl
0.775002 0.597020 0.279672 Cl
0.481093 0.114616 0.021497 Cl
0.428386 0.598360 0.478440 Cl
0.320292 0.046722 0.930470 Cl
0.274285 0.017242 0.467720 Cl
0.083557 0.997236 0.297539 Cl
0.667354 0.308024 0.811656 Cl
0.713361 0.419692 0.168898 Cl
0.541393 0.179383 0.293072 Cl
0.915703 0.037789 0.259572 Cl
0.964390 0.584513 0.101898 Cl
0.185397 0.906115 0.518641 Cl
0.611521 0.245937 0.928683 Cl
0.609734 0.571113 0.217585 Cl
0.845129 0.648833 0.693735 Cl
0.714255 0.222710 0.690162 Cl
0.473053 0.031536 0.322552 Cl
0.646807 0.555033 0.642815 Cl
0.324758 0.834648 0.666935 Cl
0.348879 0.364751 0.875976 Cl
0.641894 0.425945 0.539634 Cl
0.091150 0.015902 0.864810 Cl
0.490026 0.753354 0.306026 Cl
0.510573 0.372345 0.893397 Cl
0.879969 0.872615 0.921983 Cl
0.301532 0.020369 0.115298 Cl
0.383719 0.210650 0.732595 Cl
0.124650 0.325444 0.133611 Cl
0.325652 0.491159 0.222052 Cl
0.436873 0.720300 0.618695 Cl
0.006283 0.777921 0.272972 Cl
0.706214 0.706454 0.182298 Cl
0.291258 0.856981 0.950124 Cl
0.502980 0.836881 0.754482 Cl
0.616881 0.489819 0.881783 Cl
-0.017837 0.209757 0.093857 Cl
0.022810 0.788641 0.447620 Cl
0.302872 0.448725 0.387320 Cl
0.607054 0.963289 0.772349 Cl
0.385506 0.885568 0.383300 Cl
0.335925 0.926662 0.802723 Cl
0.149217 0.938275 0.165325 Cl
0.024596 0.362965 0.284139 Cl
0.840662 0.808294 0.240812 Cl
0.568640 0.830181 0.149691 Cl
0.695048 0.816334 0.781282 Cl
0.545413 0.552799 0.038024 Cl
0.445806 0.064589 0.653088 Cl
0.528887 0.686800 0.968437 Cl
0.770535 0.466592 0.848283 Cl
0.738821 0.572453 0.115744 Cl
0.580254 0.844475 0.903670 Cl
0.959476 0.554139 0.263592 Cl
0.916596 0.461679 0.803169 Cl
0.415432 0.138290 0.175151 Cl
0.506106 0.175363 0.546334 Cl
0.455186 0.897182 0.236792 Cl
0.497173 0.097643 0.864810 Cl
0.144750 0.591660 0.297539 Cl
0.432853 0.779261 0.138078 Cl
0.127777 0.110149 0.997471 Cl
0.449826 0.401378 0.615568 Cl
0.255078 0.982049 0.670062 Cl
0.214431 0.333484 0.936723 Cl
0.690134 0.150796 0.824609 Cl
0.821455 0.479545 1.017124 Cl
0.586060 0.336611 0.666935 Cl
0.816542 0.342418 0.276545 Cl
0.020576 0.607293 0.392680 Cl
0.733015 0.948102 0.662915 Cl
0.825922 0.715387 0.837116 Cl
0.537373 0.833755 0.587874 Cl
0.613754 0.539846 0.425287 Cl
0.655741 0.440238 1.017124 Cl
0.942950 0.219584 0.255552 Cl
0.423919 0.566646 0.314066 Cl
0.862102 0.709580 0.986751 Cl
-0.005331 0.997682 0.999257 Cl
0.449826 0.245044 0.878656 Cl
0.326545 0.305344 0.606188 Cl
0.391312 0.643027 0.043830 Cl
0.129117 0.780154 0.135844 Cl
0.244358 0.181170 0.435113 Cl
