La4 Cu2 O8
1.0
5.350000 0.000000 0.000000
0.000000 5.350000 0.000000
-2.016407 0.000000 4.955462
Cu La O
2 4 8
direct
0.000000 0.000000 0.000000 Cu
0.500000 0.500000 0.000000 Cu
0.638890 0.006900 0.277780 La
0.361110 0.993100 0.722220 La
0.138890 0.493100 0.277780 La
0.861110 0.506900 0.722220 La
0.243030 0.250000 0.986060 O
0.183070 0.035600 0.366140 O
0.316930 0.535600 0.633860 O
0.256970 0.750000 0.013940 O
0.743030 0.250000 0.986060 O
0.683070 0.464400 0.366140 O
0.816930 0.964400 0.633860 O
0.756970 0.750000 0.013940 O
