Ti2 O4
1.0
3.599734 0.000000 -1.331225
-0.492303 3.565911 -1.331225
0.000000 0.000000 5.532592
O Ti
4 2
direct
0.334170 0.584170 0.168340 O
0.084170 0.834170 0.668340 O
0.915830 0.165830 0.331660 O
0.665830 0.415830 0.831660 O
0.875000 0.625000 0.250000 Ti
0.125000 0.375000 0.750000 Ti
