POSCAR -- Reduced via -c,-1/2a-1/2b,-1/2
   1.00000000000000     
     5.1200000000000001    0.0000000000000000    0.0000000000000000
    -0.5112241116000000    8.6559165262000004    0.0000000000000000
    -0.5112241116000000   -3.3710235759999998    7.9725209913999997
   Nb   F 
     4    20
Direct
  0.0000000000000000  0.2989999999999995  0.7010000000000005
  0.0000000000000000  0.7010000000000005  0.2989999999999995
  0.7430000000000021  0.7599999999999980  0.7599999999999980
  0.2569999999999979  0.2400000000000020  0.2400000000000020
  0.0700000000000003  0.8449999999999989  0.8449999999999989
  0.9299999999999997  0.1550000000000011  0.1550000000000011
  0.4500000000000028  0.6480000000000032  0.6480000000000032
  0.5499999999999972  0.3519999999999968  0.3519999999999968
  0.6270000000000024  0.7680000000000007  0.9519999999999982
  0.3729999999999976  0.0480000000000018  0.2319999999999993
  0.3729999999999976  0.2319999999999993  0.0480000000000018
  0.6270000000000024  0.9519999999999982  0.7680000000000007
  0.2999999999999972  0.4239999999999995  0.7920000000000016
  0.7000000000000028  0.2079999999999984  0.5760000000000005
  0.7000000000000028  0.5760000000000005  0.2079999999999984
  0.2999999999999972  0.7920000000000016  0.4239999999999995
  0.8710000000000022  0.3359999999999985  0.8999999999999986
  0.1289999999999978  0.1000000000000014  0.6640000000000015
  0.1289999999999978  0.6640000000000015  0.1000000000000014
  0.8710000000000022  0.8999999999999986  0.3359999999999985
  0.8710000000000022  0.5270000000000010  0.7229999999999990
  0.1289999999999978  0.2770000000000010  0.4729999999999990
  0.1289999999999978  0.4729999999999990  0.2770000000000010
  0.8710000000000022  0.7229999999999990  0.5270000000000010
 
  0.00000000E+00  0.00000000E+00  0.00000000E+00
  0.00000000E+00  0.00000000E+00  0.00000000E+00
  0.00000000E+00  0.00000000E+00  0.00000000E+00
  0.00000000E+00  0.00000000E+00  0.00000000E+00
  0.00000000E+00  0.00000000E+00  0.00000000E+00
  0.00000000E+00  0.00000000E+00  0.00000000E+00
  0.00000000E+00  0.00000000E+00  0.00000000E+00
  0.00000000E+00  0.00000000E+00  0.00000000E+00
  0.00000000E+00  0.00000000E+00  0.00000000E+00
  0.00000000E+00  0.00000000E+00  0.00000000E+00
  0.00000000E+00  0.00000000E+00  0.00000000E+00
  0.00000000E+00  0.00000000E+00  0.00000000E+00
  0.00000000E+00  0.00000000E+00  0.00000000E+00
  0.00000000E+00  0.00000000E+00  0.00000000E+00
  0.00000000E+00  0.00000000E+00  0.00000000E+00
  0.00000000E+00  0.00000000E+00  0.00000000E+00
  0.00000000E+00  0.00000000E+00  0.00000000E+00
  0.00000000E+00  0.00000000E+00  0.00000000E+00
  0.00000000E+00  0.00000000E+00  0.00000000E+00
  0.00000000E+00  0.00000000E+00  0.00000000E+00
  0.00000000E+00  0.00000000E+00  0.00000000E+00
  0.00000000E+00  0.00000000E+00  0.00000000E+00
  0.00000000E+00  0.00000000E+00  0.00000000E+00
  0.00000000E+00  0.00000000E+00  0.00000000E+00
