POSCAR -- Reduced via 1/2a+1/2b,-1/2a+1/
   1.00000000000000     
     5.9100000000000001    0.0000000000000000    0.0000000000000000
    -2.9550000000000001    5.1182101364000001    0.0000000000000000
     0.0000000000000000    0.0000000000000000   14.4350000000000005
   Ti   Ti   O    Li
     6     4    24    14
Direct
  0.5000000000000000  0.0000000000000000 -0.0000000000000000
  0.0000000000000000  0.5000000000000000 -0.0000000000000000
  0.1705666102445325  0.3364793047204719  0.6652590808031764
  0.3364793047204719  0.1705666102445325  0.3347409191968235
  0.8294333897554673  0.6635206952795280  0.3347409191968235
  0.6635206952795280  0.8294333897554673  0.6652590808031764
  0.6616848037280119  0.3383151962719883  0.6627626474770270
  0.3383151962719883  0.6616848037280119  0.3372373525229731
  0.8337536500578504  0.1662463499421496  0.8414490006820829
  0.1662463499421496  0.8337536500578504  0.1585509993179170
  0.4943013778433392  0.5056986221566608  0.2555454116003453
  0.5056986221566608  0.4943013778433392  0.7444545883996547
  0.8537855673964546  0.6723188169830038  0.0879689946100418
  0.6723188169830038  0.8537855673964546  0.9120310053899583
  0.1462144326035455  0.3276811830169961  0.9120310053899583
  0.3276811830169961  0.1462144326035455  0.0879689946100418
  0.3280054153939018  0.6719945846060983  0.0840905047863291
  0.6719945846060983  0.3280054153939018  0.9159094952136708
  0.8269339376185315  0.6516017826753410  0.5907290007982853
  0.6516017826753410  0.8269339376185315  0.4092709992017146
  0.1730660623814685  0.3483982173246589  0.4092709992017146
  0.3483982173246589  0.1730660623814685  0.5907290007982853
  0.3430893854979957  0.6569106145020042  0.5922621765038447
  0.6569106145020042  0.3430893854979957  0.4077378234961553
  0.8285440834578803  0.1714559165421198  0.5888296070677249
  0.1714559165421198  0.8285440834578803  0.4111703929322750
  0.5269108263936413  0.0211570749265153  0.7496105837006600
  0.0211570749265153  0.5269108263936413  0.2503894162993397
  0.4730891736063587  0.9788429250734848  0.2503894162993397
  0.9788429250734848  0.4730891736063587  0.7496105837006600
  0.8240793328585577  0.1759206671414423  0.0742579794406936
  0.1759206671414423  0.8240793328585577  0.9257420205593063
  0.9849706307276763  0.0150293692723237  0.7489279829479375
  0.0150293692723237  0.9849706307276763  0.2510720170520623
  0.5000000000000000  0.5000000000000000 -0.0000000000000000
  0.0000000000000000  0.0000000000000000  0.5000000000000000
  0.1643405460823308  0.3270550903173495  0.1632336695302609
  0.3270550903173495  0.1643405460823308  0.8367663304697390
  0.8356594539176693  0.6729449096826502  0.8367663304697390
  0.6729449096826502  0.8356594539176693  0.1632336695302609
  0.6666653235360259  0.3333346764639740  0.1652480218863553
  0.3333346764639740  0.6666653235360259  0.8347519781136444
  0.5000000000000000  0.0000000000000000  0.5000000000000000
  0.0000000000000000  0.5000000000000000  0.5000000000000000
  0.8309195670243935  0.1690804329756063  0.3349374331965344
  0.1690804329756063  0.8309195670243935  0.6650625668034656
  0.5000000000000000  0.5000000000000000  0.5000000000000000
  0.0000000000000000  0.0000000000000000 -0.0000000000000000
 
  0.00000000E+00  0.00000000E+00  0.00000000E+00
  0.00000000E+00  0.00000000E+00  0.00000000E+00
  0.00000000E+00  0.00000000E+00  0.00000000E+00
  0.00000000E+00  0.00000000E+00  0.00000000E+00
  0.00000000E+00  0.00000000E+00  0.00000000E+00
  0.00000000E+00  0.00000000E+00  0.00000000E+00
  0.00000000E+00  0.00000000E+00  0.00000000E+00
  0.00000000E+00  0.00000000E+00  0.00000000E+00
  0.00000000E+00  0.00000000E+00  0.00000000E+00
  0.00000000E+00  0.00000000E+00  0.00000000E+00
  0.00000000E+00  0.00000000E+00  0.00000000E+00
  0.00000000E+00  0.00000000E+00  0.00000000E+00
  0.00000000E+00  0.00000000E+00  0.00000000E+00
  0.00000000E+00  0.00000000E+00  0.00000000E+00
  0.00000000E+00  0.00000000E+00  0.00000000E+00
  0.00000000E+00  0.00000000E+00  0.00000000E+00
  0.00000000E+00  0.00000000E+00  0.00000000E+00
  0.00000000E+00  0.00000000E+00  0.00000000E+00
  0.00000000E+00  0.00000000E+00  0.00000000E+00
  0.00000000E+00  0.00000000E+00  0.00000000E+00
  0.00000000E+00  0.00000000E+00  0.00000000E+00
  0.00000000E+00  0.00000000E+00  0.00000000E+00
  0.00000000E+00  0.00000000E+00  0.00000000E+00
  0.00000000E+00  0.00000000E+00  0.00000000E+00
  0.00000000E+00  0.00000000E+00  0.00000000E+00
  0.00000000E+00  0.00000000E+00  0.00000000E+00
  0.00000000E+00  0.00000000E+00  0.00000000E+00
  0.00000000E+00  0.00000000E+00  0.00000000E+00
  0.00000000E+00  0.00000000E+00  0.00000000E+00
  0.00000000E+00  0.00000000E+00  0.00000000E+00
  0.00000000E+00  0.00000000E+00  0.00000000E+00
  0.00000000E+00  0.00000000E+00  0.00000000E+00
  0.00000000E+00  0.00000000E+00  0.00000000E+00
  0.00000000E+00  0.00000000E+00  0.00000000E+00
  0.00000000E+00  0.00000000E+00  0.00000000E+00
  0.00000000E+00  0.00000000E+00  0.00000000E+00
  0.00000000E+00  0.00000000E+00  0.00000000E+00
  0.00000000E+00  0.00000000E+00  0.00000000E+00
  0.00000000E+00  0.00000000E+00  0.00000000E+00
  0.00000000E+00  0.00000000E+00  0.00000000E+00
  0.00000000E+00  0.00000000E+00  0.00000000E+00
  0.00000000E+00  0.00000000E+00  0.00000000E+00
  0.00000000E+00  0.00000000E+00  0.00000000E+00
  0.00000000E+00  0.00000000E+00  0.00000000E+00
  0.00000000E+00  0.00000000E+00  0.00000000E+00
  0.00000000E+00  0.00000000E+00  0.00000000E+00
  0.00000000E+00  0.00000000E+00  0.00000000E+00
  0.00000000E+00  0.00000000E+00  0.00000000E+00
