&control
  calculation = 'nscf'
  prefix = 'system'
  pseudo_dir = '/hpcgpfs01/scratch/mtopsakal/paradox/OCEAN-1.2.0-IC/'
  outdir = './Out'
  tstress = .false., tprnfor = .false.
  wf_collect = .true.
/
&system
  ibrav = 0
  nat = 48
  ntyp = 4
  noncolin = .false.
  lspinorb = .false.
  ecutwfc = 100
  occupations = 'smearing'
  smearing = 'gaussian'
  degauss = 0.002
  nspin  = 2
  tot_charge  = 0.0
  nosym = .true.
  noinv = .true.
  nbnd = 600
starting_magnetization(1)=0.5, starting_magnetization(2)=0.0, starting_magnetization(3)=0.0, starting_magnetization(4)=0.0
lda_plus_u=.true. , Hubbard_U(1)=4, , Hubbard_U(2)=0,
/
&electrons
  conv_thr = 1.1d-6
  mixing_beta = 0.3
  electron_maxstep = 80
/
&ions
/
ATOMIC_SPECIES
 Ti1   47.8670   ti.fhi.UPF
 Ti2   47.8670   ti.fhi.UPF
 O   15.9994   08-o.lda.fhi.UPF
 Li    6.9410   03-li.lda.fhi.UPF
CELL_PARAMETERS cubic
   11.1682806600000       0.000000000000000E+000  0.000000000000000E+000
  -5.58414033000000        9.67201476821863       0.000000000000000E+000
  0.000000000000000E+000  0.000000000000000E+000   27.2781948100000     
ATOMIC_POSITIONS crystal
Ti1     0.5000000000     0.0000000000     0.0000000000
Ti1     0.0000000000     0.5000000000     0.0000000000
Ti1     0.1705800000     0.3364800000     0.6652600000
Ti1     0.3364800000     0.1705800000     0.3347400000
Ti1     0.8294200000     0.6635200000     0.3347400000
Ti1     0.6635200000     0.8294200000     0.6652600000
Ti2     0.6616800000     0.3383200000     0.6627600000
Ti2     0.3383200000     0.6616800000     0.3372400000
Ti2     0.8337500000     0.1662500000     0.8414500000
Ti2     0.1662500000     0.8337500000     0.1585500000
O     0.4943000000     0.5057000000     0.2555500000
O     0.5057000000     0.4943000000     0.7444500000
O     0.8538000000     0.6723200000     0.0879700000
O     0.6723200000     0.8538000000     0.9120300000
O     0.1462000000     0.3276800000     0.9120300000
O     0.3276800000     0.1462000000     0.0879700000
O     0.3280100000     0.6719900000     0.0840900000
O     0.6719900000     0.3280100000     0.9159100000
O     0.8269400000     0.6516000000     0.5907300000
O     0.6516000000     0.8269400000     0.4092700000
O     0.1730600000     0.3484000000     0.4092700000
O     0.3484000000     0.1730600000     0.5907300000
O     0.3430900000     0.6569100000     0.5922600000
O     0.6569100000     0.3430900000     0.4077400000
O     0.8285400000     0.1714600000     0.5888300000
O     0.1714600000     0.8285400000     0.4111700000
O     0.5269100000     0.0211500000     0.7496100000
O     0.0211500000     0.5269100000     0.2503900000
O     0.4730900000     0.9788500000     0.2503900000
O     0.9788500000     0.4730900000     0.7496100000
O     0.8240800000     0.1759200000     0.0742600000
O     0.1759200000     0.8240800000     0.9257400000
O     0.9849700000     0.0150300000     0.7489300000
O     0.0150300000     0.9849700000     0.2510700000
Li     0.5000000000     0.5000000000     0.0000000000
Li     0.0000000000     0.0000000000     0.5000000000
Li     0.1643400000     0.3270600000     0.1632300000
Li     0.3270600000     0.1643400000     0.8367700000
Li     0.8356600000     0.6729400000     0.8367700000
Li     0.6729400000     0.8356600000     0.1632300000
Li     0.6666700000     0.3333300000     0.1652500000
Li     0.3333300000     0.6666700000     0.8347500000
Li     0.5000000000     0.0000000000     0.5000000000
Li     0.0000000000     0.5000000000     0.5000000000
Li     0.8309200000     0.1690800000     0.3349400000
Li     0.1690800000     0.8309200000     0.6650600000
Li     0.5000000000     0.5000000000     0.5000000000
Li     0.0000000000     0.0000000000     0.0000000000
K_POINTS crystal
          32
   0.31250000E-01   0.62500000E-01   0.18750000E+00  0.03125000
   0.31250000E-01   0.62500000E-01   0.68750000E+00  0.03125000
   0.31250000E-01   0.31250000E+00   0.18750000E+00  0.03125000
   0.31250000E-01   0.31250000E+00   0.68750000E+00  0.03125000
   0.31250000E-01   0.56250000E+00   0.18750000E+00  0.03125000
   0.31250000E-01   0.56250000E+00   0.68750000E+00  0.03125000
   0.31250000E-01   0.81250000E+00   0.18750000E+00  0.03125000
   0.31250000E-01   0.81250000E+00   0.68750000E+00  0.03125000
   0.28125000E+00   0.62500000E-01   0.18750000E+00  0.03125000
   0.28125000E+00   0.62500000E-01   0.68750000E+00  0.03125000
   0.28125000E+00   0.31250000E+00   0.18750000E+00  0.03125000
   0.28125000E+00   0.31250000E+00   0.68750000E+00  0.03125000
   0.28125000E+00   0.56250000E+00   0.18750000E+00  0.03125000
   0.28125000E+00   0.56250000E+00   0.68750000E+00  0.03125000
   0.28125000E+00   0.81250000E+00   0.18750000E+00  0.03125000
   0.28125000E+00   0.81250000E+00   0.68750000E+00  0.03125000
   0.53125000E+00   0.62500000E-01   0.18750000E+00  0.03125000
   0.53125000E+00   0.62500000E-01   0.68750000E+00  0.03125000
   0.53125000E+00   0.31250000E+00   0.18750000E+00  0.03125000
   0.53125000E+00   0.31250000E+00   0.68750000E+00  0.03125000
   0.53125000E+00   0.56250000E+00   0.18750000E+00  0.03125000
   0.53125000E+00   0.56250000E+00   0.68750000E+00  0.03125000
   0.53125000E+00   0.81250000E+00   0.18750000E+00  0.03125000
   0.53125000E+00   0.81250000E+00   0.68750000E+00  0.03125000
   0.78125000E+00   0.62500000E-01   0.18750000E+00  0.03125000
   0.78125000E+00   0.62500000E-01   0.68750000E+00  0.03125000
   0.78125000E+00   0.31250000E+00   0.18750000E+00  0.03125000
   0.78125000E+00   0.31250000E+00   0.68750000E+00  0.03125000
   0.78125000E+00   0.56250000E+00   0.18750000E+00  0.03125000
   0.78125000E+00   0.56250000E+00   0.68750000E+00  0.03125000
   0.78125000E+00   0.81250000E+00   0.18750000E+00  0.03125000
   0.78125000E+00   0.81250000E+00   0.68750000E+00  0.03125000
