Ti8 O16
1.0
6.271525 0.000000 0.000000
0.000000 10.463535 0.000000
0.000000 0.000000 11.539671
Ti O
8 16
direct
0.500000 0.999542 0.254203 Ti
0.253717 0.942676 0.000000 Ti
0.000000 0.999542 0.754203 Ti
0.753717 0.942676 0.500000 Ti
0.500000 0.999542 0.745797 Ti
0.246283 0.942676 0.500000 Ti
0.746283 0.942676 0.000000 Ti
0.000000 0.999542 0.245797 Ti
0.745290 0.038237 0.864204 O
0.000000 0.860544 0.000000 O
0.000000 0.843963 0.756308 O
0.254710 0.038237 0.135796 O
0.500000 0.860544 0.500000 O
0.000000 0.843963 0.243692 O
0.754710 0.038237 0.635796 O
0.245290 0.038237 0.364204 O
0.245290 0.038237 0.635796 O
0.754710 0.038237 0.364204 O
0.000000 0.852648 0.500000 O
0.500000 0.843963 0.743692 O
0.500000 0.852648 0.000000 O
0.254710 0.038237 0.864204 O
0.745290 0.038237 0.135796 O
0.500000 0.843963 0.256308 O
