Ti8 O16
1.0
6.265404 0.000000 0.000000
0.000000 10.517169 0.000000
0.000000 0.000000 11.489369
Ti O
8 16
direct
0.500000 0.002121 0.251634 Ti
0.251908 0.939850 0.000000 Ti
0.000000 0.002121 0.751633 Ti
0.751908 0.939850 0.500000 Ti
0.500000 0.002121 0.748367 Ti
0.248092 0.939850 0.500000 Ti
0.748092 0.939850 0.000000 Ti
0.000000 0.002121 0.248366 Ti
0.747837 0.038414 0.865271 O
0.000000 0.855498 0.000000 O
0.000000 0.847324 0.751949 O
0.252163 0.038414 0.134729 O
0.500000 0.855498 0.500000 O
0.000000 0.847324 0.248051 O
0.752163 0.038414 0.634729 O
0.247837 0.038414 0.365271 O
0.247837 0.038414 0.634729 O
0.752163 0.038414 0.365271 O
0.000000 0.850756 0.500000 O
0.500000 0.847324 0.748051 O
0.500000 0.850756 0.000000 O
0.252163 0.038414 0.865271 O
0.747837 0.038414 0.134729 O
0.500000 0.847324 0.251949 O
