&control
  calculation = 'nscf'
  verbosity = 'high'
  pseudo_dir = './'
  outdir = './tmp'
  wf_collect = .true.
  lkpoint_dir = .false.
/
&system
  ibrav = 0
  nat = 2
  ntyp = 2
  ecutwfc = 100
  occupations = 'smearing'
  smearing = 'fermi-dirac'
  degauss = 0.02
  nbnd = 24
/
&electrons
  conv_thr = 1.1d-6
  mixing_beta = 0.3
  electron_maxstep = 80
/
&ions
/
ATOMIC_SPECIES
 Nb   92.9064   nb.fhi.UPF
 C    12.0107   06-c.lda.fhi.UPF
CELL_PARAMETERS angstrom
        3.1600999832         0.0000000000         0.0000000000
        1.5800499916         2.7367268640         0.0000000000
        1.5800499916         0.9122422880         2.5802108317  
ATOMIC_POSITIONS crystal
Nb     0.0000000000     0.0000000000     0.0000000000
C      0.5000000000     0.5000000000     0.5000000000
K_POINTS automatic
18 18 18  0 0 0
