Ni4 O4
1.0
4.225206 -0.000195 -0.001225
0.000737 4.225206 -0.001225
0.000245 0.000245 4.226739
Ni O
4 4
direct
0.500000 0.000000 0.500000 Ni
0.000000 0.500000 0.500000 Ni
0.000000 0.000000 0.000000 Ni
0.500000 0.500000 0.000000 Ni
0.000000 0.500000 0.000000 O
0.500000 0.000000 0.000000 O
0.500000 0.500000 0.500000 O
0.000000 0.000000 0.500000 O
