Ni1 O1
1.0
2.553593 0.000000 1.474318
0.851198 2.407551 1.474318
0.000000 0.000000 2.948635
O Ni
1 1
direct
0.500000 0.499999 0.500002 O
0.000000 0.000000 0.000000 Ni
