K44 Zn54 Ni2 Cl156
1.0
22.387900 0.000000 0.000000
-0.000000 22.387900 0.000000
0.000000 0.000000 22.387900
Ni Zn K Cl
2 54 44 156
direct
0.376999 0.121310 0.445870 Ni
0.056290 0.812754 0.591931 Ni
0.391739 0.747541 0.241742 Zn
0.870569 0.667140 0.905940 Zn
0.107657 0.983382 0.941227 Zn
0.753095 0.103443 0.338669 Zn
0.256845 0.190097 0.272115 Zn
0.090237 0.391098 0.427110 Zn
0.761135 1.012863 0.724145 Zn
0.785256 0.789528 0.986341 Zn
0.713788 0.495619 0.683945 Zn
0.424346 0.982489 0.381550 Zn
0.839303 0.363405 0.863060 Zn
0.039317 0.561726 0.448550 Zn
0.730315 0.860102 0.138115 Zn
0.452486 0.444699 0.155088 Zn
0.013410 0.269157 0.303382 Zn
0.440426 0.556813 0.934974 Zn
0.048697 0.269157 0.731739 Zn
0.301959 0.478199 0.243529 Zn
0.092471 0.499639 0.998847 Zn
0.865656 0.386631 0.102828 Zn
0.245232 0.445592 0.646872 Zn
0.909430 0.609966 0.272115 Zn
0.653041 0.735481 0.089428 Zn
0.626688 0.636767 0.457930 Zn
0.528420 0.373231 0.922467 Zn
0.151431 0.877968 0.374850 Zn
0.326972 0.853401 0.337776 Zn
0.886650 0.417898 0.692432 Zn
0.971070 0.042696 0.951054 Zn
0.567281 0.571553 0.063074 Zn
0.627581 0.325438 0.319909 Zn
0.332332 0.727887 0.654465 Zn
0.181358 0.362958 0.273009 Zn
0.211285 0.132476 0.414156 Zn
0.565941 0.269157 0.531184 Zn
0.510107 0.795334 0.674118 Zn
0.787936 0.950329 0.411923 Zn
0.732548 0.251737 0.447210 Zn
0.098277 0.059669 0.518231 Zn
0.168851 0.124883 0.036274 Zn
0.919256 0.103889 0.677245 Zn
0.316252 0.601926 0.281049 Zn
0.891116 0.471945 0.483837 Zn
0.866103 0.065922 0.109974 Zn
0.161704 0.554133 0.757646 Zn
0.655275 0.621133 0.728165 Zn
1.000104 0.160616 0.866633 Zn
0.234065 0.311591 0.744246 Zn
0.494473 0.480879 0.522697 Zn
0.945610 0.865908 0.452570 Zn
0.384593 0.360278 0.009027 Zn
0.042444 0.087363 0.136328 Zn
0.996977 0.854295 0.919787 Zn
0.037530 0.819901 0.292216 Zn
0.693242 0.862782 0.570044 K
0.548074 0.501426 0.756752 K
0.229598 0.513486 0.421750 K
0.356899 0.547879 0.612478 K
0.738355 0.548326 0.871100 K
0.059417 0.677860 0.906387 K
0.012070 0.456312 0.216728 K
0.753989 0.314271 0.708512 K
0.221558 0.184290 0.595058 K
0.173764 0.705107 0.655358 K
0.080410 0.896728 0.749606 K
0.214411 0.346431 0.100594 K
0.208605 0.717614 0.407010 K
0.680735 0.343304 0.085854 K
0.362706 0.686347 0.857253 K
0.461866 0.785508 0.419070 K
0.799549 0.460332 0.295342 K
0.513680 0.651507 0.599971 K
0.142051 0.419238 0.838046 K
0.351092 0.627833 0.129181 K
0.061204 0.403158 0.616051 K
0.917917 0.881095 0.653125 K
0.823669 0.698407 0.434703 K
0.874589 0.937375 0.258715 K
0.934443 0.907449 0.084514 K
0.423006 0.186970 0.271669 K
0.221111 0.191437 0.882713 K
0.876376 0.190097 0.234149 K
0.567281 0.111036 0.403436 K
0.930870 0.491152 0.951947 K
1.004570 0.656867 0.704939 K
0.806249 0.563066 0.104614 K
0.502067 0.580486 0.355196 K
0.225578 0.970429 0.541904 K
0.955437 0.257097 0.010367 K
0.491793 0.341071 0.368149 K
0.011177 0.057436 0.374850 K
0.652595 0.769874 0.821073 K
0.379233 0.377698 0.816606 K
0.408266 0.342858 0.590591 K
0.614181 0.944522 0.296682 K
0.827689 0.137836 0.534311 K
0.681628 0.446485 0.467310 K
0.005370 0.262457 0.512424 K
0.429260 0.762728 0.610245 Cl
0.840643 0.056542 0.357429 Cl
0.330992 0.433532 0.690198 Cl
0.017877 0.800694 0.838940 Cl
0.442213 0.702427 0.317676 Cl
0.967943 0.671160 0.221642 Cl
0.784362 0.878862 0.037167 Cl
0.985364 0.824815 0.214495 Cl
0.232278 0.552793 0.250675 Cl
0.456953 0.389311 0.059054 Cl
0.134904 0.862782 0.638831 Cl
0.607481 0.628726 0.812586 Cl
0.201011 0.211537 0.038060 Cl
0.752649 0.574233 0.740672 Cl
0.885310 0.313824 0.678585 Cl
0.262205 0.784168 0.712979 Cl
0.078624 0.253970 0.632131 Cl
0.575321 0.670267 0.092108 Cl
0.913450 0.124436 0.897453 Cl
0.134457 0.163743 0.465970 Cl
0.114357 0.625600 0.465970 Cl
1.001444 0.086023 0.507957 Cl
0.768282 0.681434 0.863953 Cl
0.828582 0.311144 0.056821 Cl
0.169744 0.141410 0.319462 Cl
0.442213 0.392885 0.483837 Cl
0.142944 1.002589 0.448997 Cl
0.012517 0.794441 0.687518 Cl
0.513680 0.396458 0.831793 Cl
0.914343 0.387525 0.527164 Cl
0.052270 0.957029 0.021534 Cl
0.608821 0.378591 0.979641 Cl
0.865656 0.439785 0.793379 Cl
0.565941 0.241017 0.329289 Cl
0.531100 0.681434 0.466864 Cl
0.447573 0.178483 0.410136 Cl
0.989830 0.184737 0.769259 Cl
0.870569 0.817221 0.522697 Cl
0.260865 0.342858 0.830900 Cl
0.301512 0.219577 0.361003 Cl
0.753095 0.920402 0.680818 Cl
0.730762 0.131136 0.247995 Cl
0.639641 0.616666 0.356983 Cl
0.956330 0.323204 0.238169 Cl
0.166618 0.430852 0.200648 Cl
0.988490 0.535819 0.369936 Cl
0.307765 0.399585 0.298916 Cl
0.749969 0.720741 0.115781 Cl
0.795529 0.829281 0.206902 Cl
0.786149 0.288364 0.531184 Cl
0.502960 0.788634 0.774619 Cl
0.920597 0.183397 0.632131 Cl
0.619541 0.704214 0.675458 Cl
0.946503 0.019915 0.725039 Cl
0.455613 1.016883 0.282836 Cl
0.146071 0.093169 0.122928 Cl
0.153664 0.249504 0.777299 Cl
0.283645 0.073963 0.416837 Cl
0.637854 0.224937 0.483390 Cl
0.179124 0.861442 0.467757 Cl
0.009837 0.890922 0.533417 Cl
0.790616 0.986956 0.498130 Cl
0.090237 0.934249 0.319016 Cl
0.807142 0.479985 0.441850 Cl
0.363152 0.842235 0.250675 Cl
0.077284 0.494726 0.732632 Cl
0.765155 0.868142 0.363236 Cl
0.292579 0.678754 0.566471 Cl
0.006710 0.369211 0.381996 Cl
0.026363 0.567086 0.042527 Cl
0.943377 0.943182 0.907280 Cl
0.118377 0.326331 0.489197 Cl
0.296599 0.254864 0.692879 Cl
0.786596 0.180717 0.403883 Cl
0.384593 0.620686 1.001527 Cl
0.850916 0.602820 0.982320 Cl
0.928636 0.505446 0.665185 Cl
0.502067 0.911915 0.387356 Cl
0.582467 0.531799 0.483837 Cl
0.433726 0.034656 0.472670 Cl
0.434173 0.542073 0.473564 Cl
0.314019 0.625153 0.383336 Cl
0.713342 0.652847 0.510191 Cl
0.440426 0.578700 0.834473 Cl
0.842429 0.591653 0.344476 Cl
0.472587 0.291937 0.952394 Cl
0.896476 0.516612 0.206902 Cl
0.088897 0.790868 0.366363 Cl
0.335012 0.468819 0.134988 Cl
0.788382 0.427278 0.945694 Cl
0.579341 0.859208 0.629898 Cl
0.037977 0.362065 0.741565 Cl
0.232725 0.276304 0.230129 Cl
0.187611 0.474179 0.020640 Cl
0.780789 0.442018 0.624985 Cl
0.163491 0.409412 0.361449 Cl
0.819202 0.065476 0.649105 Cl
0.962583 0.428172 0.091214 Cl
0.638301 0.564406 0.637938 Cl
0.535567 0.552346 0.968027 Cl
0.693242 0.020809 0.381996 Cl
0.879503 0.754241 0.954180 Cl
0.399779 0.639000 0.692432 Cl
0.791956 0.434872 0.157321 Cl
0.731208 0.316058 0.370830 Cl
0.879503 1.015989 0.014834 Cl
0.236298 0.569319 0.677245 Cl
0.135351 0.931569 0.868420 Cl
0.913003 0.939162 0.393163 Cl
0.209051 0.825708 0.307849 Cl
0.393079 0.535819 0.282836 Cl
0.297045 0.300871 1.005101 Cl
0.119271 0.278537 0.284622 Cl
0.814736 0.041356 0.182782 Cl
0.489113 0.466585 0.629005 Cl
0.262205 0.465692 0.552624 Cl
0.104084 0.481325 0.489197 Cl
0.964370 0.019469 0.145708 Cl
0.700835 0.740841 0.978747 Cl
0.464993 0.392438 0.230575 Cl
0.062990 0.212430 0.915320 Cl
0.207711 0.062796 0.965347 Cl
0.130437 0.650613 0.772832 Cl
0.384146 0.468819 0.933634 Cl
0.329206 0.792208 0.421303 Cl
0.502960 0.236550 0.593718 Cl
0.660635 0.308018 0.224768 Cl
0.073710 0.715827 0.572724 Cl
0.031723 0.127563 0.228342 Cl
0.947397 0.211984 0.360109 Cl
0.945610 0.650613 0.847873 Cl
0.933103 0.329011 0.882267 Cl
0.627581 0.800248 0.164468 Cl
0.608374 0.355811 0.567364 Cl
0.646341 0.518846 0.097468 Cl
0.951417 0.549219 0.518677 Cl
0.307765 0.136943 0.207795 Cl
0.482860 0.543859 0.138561 Cl
0.600334 0.412985 0.347603 Cl
0.766049 0.294171 0.848766 Cl
0.038870 0.113716 0.021087 Cl
0.130437 0.068156 0.612031 Cl
0.735675 0.033316 0.815266 Cl
0.045570 0.056989 0.880927 Cl
0.046910 0.432638 0.950607 Cl
0.323846 0.156596 0.527611 Cl
0.181805 0.386185 0.696005 Cl
0.303299 0.689474 0.248889 Cl
0.930423 0.801141 0.381103 Cl
0.677608 0.941842 0.151961 Cl
0.430600 0.740841 0.153301 Cl
0.331886 0.942289 0.378423 Cl
0.231832 0.519739 0.826433 Cl
0.996084 0.791761 1.005101 Cl
0.892010 0.161510 0.102381 Cl
0.697262 0.439339 0.766579 Cl
