super cell
1.0
+19.7428496000  +0.0000000000  +0.0000000000 
 +0.0000000000 +21.3742085000  +0.0000000000 
 +0.0000000000  +0.0000000000 +10.0000000000 
C
 154
Direct
 +0.0312500000  +0.0328381691  +0.5000000000 
 +0.1562500000  +0.0328381691  +0.5000000000 
 +0.2812500000  +0.0328381691  +0.5000000000 
 +0.4062500000  +0.0328381691  +0.5000000000 
 +0.5312500000  +0.0328381691  +0.5000000000 
 +0.6562500000  +0.0328381691  +0.5000000000 
 +0.7812500000  +0.0328381691  +0.5000000000 
 +0.9062500000  +0.0328381691  +0.5000000000 
 +0.0312500000  +0.2328381691  +0.5000000000 
 +0.1562500000  +0.2328381691  +0.5000000000 
 +0.2812500000  +0.2328381691  +0.5000000000 
 +0.4062500000  +0.2328381691  +0.5000000000 
 +0.5312500000  +0.2328381691  +0.5000000000 
 +0.6562500000  +0.2328381691  +0.5000000000 
 +0.7812500000  +0.2328381691  +0.5000000000 
 +0.9062500000  +0.2328381691  +0.5000000000 
 +0.0312500000  +0.4328381691  +0.5000000000 
 +0.1562500000  +0.4328381691  +0.5000000000 
 +0.2812500000  +0.4328381691  +0.5000000000 
 +0.4062500000  +0.4328381691  +0.5000000000 
 +0.6562500000  +0.4328381691  +0.5000000000 
 +0.7812500000  +0.4328381691  +0.5000000000 
 +0.9062500000  +0.4328381691  +0.5000000000 
 +0.0312500000  +0.6328381691  +0.5000000000 
 +0.1562500000  +0.6328381691  +0.5000000000 
 +0.2812500000  +0.6328381691  +0.5000000000 
 +0.4062500000  +0.6328381691  +0.5000000000 
 +0.5312500000  +0.6328381691  +0.5000000000 
 +0.6562500000  +0.6328381691  +0.5000000000 
 +0.7812500000  +0.6328381691  +0.5000000000 
 +0.9062500000  +0.6328381691  +0.5000000000 
 +0.0312500000  +0.8328381691  +0.5000000000 
 +0.1562500000  +0.8328381691  +0.5000000000 
 +0.2812500000  +0.8328381691  +0.5000000000 
 +0.4062500000  +0.8328381691  +0.5000000000 
 +0.5312500000  +0.8328381691  +0.5000000000 
 +0.6562500000  +0.8328381691  +0.5000000000 
 +0.7812500000  +0.8328381691  +0.5000000000 
 +0.9062500000  +0.8328381691  +0.5000000000 
 +0.0937500000  +0.1328370477  +0.5000000000 
 +0.2187500000  +0.1328370477  +0.5000000000 
 +0.3437500000  +0.1328370477  +0.5000000000 
 +0.4687500000  +0.1328370477  +0.5000000000 
 +0.5937500000  +0.1328370477  +0.5000000000 
 +0.7187500000  +0.1328370477  +0.5000000000 
 +0.8437500000  +0.1328370477  +0.5000000000 
 +0.9687500000  +0.1328370477  +0.5000000000 
 +0.0937500000  +0.3328370477  +0.5000000000 
 +0.2187500000  +0.3328370477  +0.5000000000 
 +0.3437500000  +0.3328370477  +0.5000000000 
 +0.4687500000  +0.3328370477  +0.5000000000 
 +0.5937500000  +0.3328370477  +0.5000000000 
 +0.7187500000  +0.3328370477  +0.5000000000 
 +0.8437500000  +0.3328370477  +0.5000000000 
 +0.9687500000  +0.3328370477  +0.5000000000 
 +0.0937500000  +0.5328370477  +0.5000000000 
 +0.2187500000  +0.5328370477  +0.5000000000 
 +0.3437500000  +0.5328370477  +0.5000000000 
 +0.7187500000  +0.5328370477  +0.5000000000 
 +0.8437500000  +0.5328370477  +0.5000000000 
 +0.9687500000  +0.5328370477  +0.5000000000 
 +0.0937500000  +0.7328370477  +0.5000000000 
 +0.2187500000  +0.7328370477  +0.5000000000 
 +0.3437500000  +0.7328370477  +0.5000000000 
 +0.4687500000  +0.7328370477  +0.5000000000 
 +0.5937500000  +0.7328370477  +0.5000000000 
 +0.7187500000  +0.7328370477  +0.5000000000 
 +0.8437500000  +0.7328370477  +0.5000000000 
 +0.9687500000  +0.7328370477  +0.5000000000 
 +0.0937500000  +0.9328370477  +0.5000000000 
 +0.2187500000  +0.9328370477  +0.5000000000 
 +0.3437500000  +0.9328370477  +0.5000000000 
 +0.4687500000  +0.9328370477  +0.5000000000 
 +0.5937500000  +0.9328370477  +0.5000000000 
 +0.7187500000  +0.9328370477  +0.5000000000 
 +0.8437500000  +0.9328370477  +0.5000000000 
 +0.9687500000  +0.9328370477  +0.5000000000 
 +0.0312500000  +0.1661618370  +0.5000000000 
 +0.1562500000  +0.1661618370  +0.5000000000 
 +0.2812500000  +0.1661618370  +0.5000000000 
 +0.4062500000  +0.1661618370  +0.5000000000 
 +0.5312500000  +0.1661618370  +0.5000000000 
 +0.6562500000  +0.1661618370  +0.5000000000 
 +0.7812500000  +0.1661618370  +0.5000000000 
 +0.9062500000  +0.1661618370  +0.5000000000 
 +0.0312500000  +0.3661618370  +0.5000000000 
 +0.1562500000  +0.3661618370  +0.5000000000 
 +0.2812500000  +0.3661618370  +0.5000000000 
 +0.4062500000  +0.3661618370  +0.5000000000 
 +0.5312500000  +0.3661618370  +0.5000000000 
 +0.6562500000  +0.3661618370  +0.5000000000 
 +0.7812500000  +0.3661618370  +0.5000000000 
 +0.9062500000  +0.3661618370  +0.5000000000 
 +0.0312500000  +0.5661618370  +0.5000000000 
 +0.1562500000  +0.5661618370  +0.5000000000 
 +0.2812500000  +0.5661618370  +0.5000000000 
 +0.4062500000  +0.5661618370  +0.5000000000 
 +0.6562500000  +0.5661618370  +0.5000000000 
 +0.7812500000  +0.5661618370  +0.5000000000 
 +0.9062500000  +0.5661618370  +0.5000000000 
 +0.0312500000  +0.7661618370  +0.5000000000 
 +0.1562500000  +0.7661618370  +0.5000000000 
 +0.2812500000  +0.7661618370  +0.5000000000 
 +0.4062500000  +0.7661618370  +0.5000000000 
 +0.5312500000  +0.7661618370  +0.5000000000 
 +0.6562500000  +0.7661618370  +0.5000000000 
 +0.7812500000  +0.7661618370  +0.5000000000 
 +0.9062500000  +0.7661618370  +0.5000000000 
 +0.0312500000  +0.9661618370  +0.5000000000 
 +0.1562500000  +0.9661618370  +0.5000000000 
 +0.2812500000  +0.9661618370  +0.5000000000 
 +0.4062500000  +0.9661618370  +0.5000000000 
 +0.5312500000  +0.9661618370  +0.5000000000 
 +0.6562500000  +0.9661618370  +0.5000000000 
 +0.7812500000  +0.9661618370  +0.5000000000 
 +0.9062500000  +0.9661618370  +0.5000000000 
 +0.0937500000  +0.0661609289  +0.5000000000 
 +0.2187500000  +0.0661609289  +0.5000000000 
 +0.3437500000  +0.0661609289  +0.5000000000 
 +0.4687500000  +0.0661609289  +0.5000000000 
 +0.5937500000  +0.0661609289  +0.5000000000 
 +0.7187500000  +0.0661609289  +0.5000000000 
 +0.8437500000  +0.0661609289  +0.5000000000 
 +0.9687500000  +0.0661609289  +0.5000000000 
 +0.0937500000  +0.2661609289  +0.5000000000 
 +0.2187500000  +0.2661609289  +0.5000000000 
 +0.3437500000  +0.2661609289  +0.5000000000 
 +0.4687500000  +0.2661609289  +0.5000000000 
 +0.5937500000  +0.2661609289  +0.5000000000 
 +0.7187500000  +0.2661609289  +0.5000000000 
 +0.8437500000  +0.2661609289  +0.5000000000 
 +0.9687500000  +0.2661609289  +0.5000000000 
 +0.0937500000  +0.4661609289  +0.5000000000 
 +0.2187500000  +0.4661609289  +0.5000000000 
 +0.3437500000  +0.4661609289  +0.5000000000 
 +0.7187500000  +0.4661609289  +0.5000000000 
 +0.8437500000  +0.4661609289  +0.5000000000 
 +0.9687500000  +0.4661609289  +0.5000000000 
 +0.0937500000  +0.6661609289  +0.5000000000 
 +0.2187500000  +0.6661609289  +0.5000000000 
 +0.3437500000  +0.6661609289  +0.5000000000 
 +0.4687500000  +0.6661609289  +0.5000000000 
 +0.5937500000  +0.6661609289  +0.5000000000 
 +0.7187500000  +0.6661609289  +0.5000000000 
 +0.8437500000  +0.6661609289  +0.5000000000 
 +0.9687500000  +0.6661609289  +0.5000000000 
 +0.0937500000  +0.8661609289  +0.5000000000 
 +0.2187500000  +0.8661609289  +0.5000000000 
 +0.3437500000  +0.8661609289  +0.5000000000 
 +0.4687500000  +0.8661609289  +0.5000000000 
 +0.5937500000  +0.8661609289  +0.5000000000 
 +0.7187500000  +0.8661609289  +0.5000000000 
 +0.8437500000  +0.8661609289  +0.5000000000 
 +0.9687500000  +0.8661609289  +0.5000000000 
