Cu2 S4
1.0
0.000000 0.000000 3.532000
4.651000 0.000000 0.000000
0.000000 5.793000 0.000000
Cu S
2 4
direct
0.500000 0.500000 0.500000 Cu
0.000000 0.000000 0.000000 Cu
0.500000 0.300000 0.878000 S
0.000000 0.200000 0.378000 S
0.000000 0.800000 0.622000 S
0.500000 0.700000 0.122000 S
