Ti4 O14
1.0
5.984021 -0.002178 0.187147
-3.052103 5.308773 0.133157
0.002181 0.014897 10.888738
Ti O
4 14
direct
0.347213 0.683404 0.327915 Ti
0.326023 0.658566 0.663358 Ti
0.674573 0.342422 0.335981 Ti
0.653521 0.317935 0.671227 Ti
0.987716 0.460155 0.716284 O
0.333876 0.676281 0.999328 O
0.185159 0.759122 0.034293 O
0.459033 0.979904 0.713667 O
0.334723 0.670571 0.495505 O
0.517222 0.517919 0.713117 O
0.517962 0.712520 0.069100 O
0.480219 0.285656 0.933201 O
0.482917 0.482593 0.286634 O
0.665924 0.330635 0.503720 O
0.541653 0.021428 0.285301 O
0.811768 0.235342 0.966603 O
0.667468 0.324334 0.001373 O
0.012868 0.541202 0.283312 O
