Ti10 O14
1.0
2.906953 0.000000 0.000000
-1.453476 4.946614 0.000000
0.000000 0.000000 19.185410
Ti O
10 14
direct
0.273676 0.547349 0.571245 Ti
0.000000 0.000000 0.500000 Ti
0.000000 0.000000 0.000000 Ti
0.726324 0.452651 0.428755 Ti
0.726324 0.452651 0.071245 Ti
0.273676 0.547349 0.928755 Ti
0.479467 0.958934 0.160299 Ti
0.520533 0.041065 0.839702 Ti
0.520533 0.041065 0.660298 Ti
0.479467 0.958934 0.339702 Ti
0.639209 0.278418 0.968972 O
0.360792 0.721583 0.031028 O
0.360792 0.721583 0.468972 O
0.639209 0.278418 0.531028 O
0.156420 0.312842 0.844833 O
0.843580 0.687158 0.155167 O
0.843580 0.687158 0.344834 O
0.156420 0.312842 0.655167 O
0.911292 0.822583 0.893533 O
0.088708 0.177417 0.106467 O
0.088708 0.177417 0.393533 O
0.911292 0.822583 0.606467 O
0.462003 0.924007 0.750000 O
0.537998 0.075995 0.250000 O
