Li8 Ti10 O24
1.0
5.288143 0.000216 -0.012511
1.832493 9.354112 -0.020590
2.079852 2.551495 9.370403
Li Ti O
8 10 24
direct
0.132125 0.408060 0.404374 Li
0.338455 0.576808 0.110930 Li
0.273272 0.907074 0.022621 Li
0.310334 0.769983 0.555790 Li
0.689666 0.230017 0.444210 Li
0.726728 0.092926 0.977379 Li
0.661545 0.423192 0.889070 Li
0.867875 0.591940 0.595626 Li
0.273124 0.099414 0.275403 Ti
0.176821 0.099182 0.674995 Ti
0.188259 0.259028 0.932125 Ti
0.137048 0.594236 0.850612 Ti
0.433059 0.412336 0.646008 Ti
0.566941 0.587664 0.353992 Ti
0.862952 0.405764 0.149388 Ti
0.811741 0.740972 0.067875 Ti
0.823179 0.900818 0.325005 Ti
0.726876 0.900586 0.724597 Ti
0.046681 0.263045 0.303118 O
0.235921 0.422775 0.010869 O
0.343400 0.102405 0.087990 O
0.104177 0.101743 0.861548 O
0.058584 0.425700 0.778540 O
0.120165 0.930420 0.377743 O
0.322454 0.261832 0.567568 O
0.262461 0.566973 0.485938 O
0.584650 0.068924 0.342798 O
0.161116 0.727342 0.951914 O
0.542761 0.425260 0.270943 O
0.474011 0.728834 0.186139 O
0.525989 0.271166 0.813861 O
0.457239 0.574740 0.729057 O
0.838884 0.272658 0.048086 O
0.415350 0.931076 0.657202 O
0.737539 0.433027 0.514062 O
0.677546 0.738168 0.432432 O
0.879835 0.069580 0.622257 O
0.941416 0.574300 0.221460 O
0.895823 0.898257 0.138452 O
0.656600 0.897595 0.912010 O
0.764079 0.577225 0.989131 O
0.953319 0.736955 0.696882 O
